NAME: berlin52-24-1
TYPE: TSP
COMMENT: min_cost = 5056.76
DIMENSION: 24
EDGE_WEIGHT_TYPE: EUC_2D
NODE_COORD_SECTION
1 410 250
2 25 185
3 595 360
4 1320 315
5 565 575
6 700 500
7 845 680
8 145 665
9 1150 1160
10 830 610
11 650 1130
12 95 260
13 720 635
14 580 1175
15 835 625
16 1340 725
17 845 655
18 555 815
19 795 645
20 685 595
21 660 180
22 300 465
23 1250 400
24 525 1000
EOF
